
Gurobi 10.0.1 (linux64) logging started Sun Nov 26 16:14:40 2023

Set parameter LogFile to value "ArtificialInstance/ExperimentV2/S3T3K3/AdSp/gurobiDoSp89.txt"
Gurobi Optimizer version 10.0.1 build v10.0.1rc0 (linux64)

CPU model: AMD EPYC 7H12 64-Core Processor, instruction set [SSE2|AVX|AVX2]
Thread count: 128 physical cores, 128 logical processors, using up to 32 threads

Academic license 656792 - for non-commercial use only - registered to b.___@student.vu.nl
Optimize a model with 12920 rows, 12504 columns and 47832 nonzeros
Model fingerprint: 0x3959741c
Variable types: 0 continuous, 12504 integer (12504 binary)
Coefficient statistics:
  Matrix range     [1e+00, 1e+00]
  Objective range  [1e+00, 2e+01]
  Bounds range     [1e+00, 1e+00]
  RHS range        [1e+00, 1e+00]
Presolve removed 10348 rows and 10034 columns
Presolve time: 0.19s
Presolved: 2572 rows, 2470 columns, 9517 nonzeros
Variable types: 0 continuous, 2470 integer (2470 binary)

Root relaxation: objective 7.375372e+01, 579 iterations, 0.01 seconds (0.01 work units)

    Nodes    |    Current Node    |     Objective Bounds      |     Work
 Expl Unexpl |  Obj  Depth IntInf | Incumbent    BestBd   Gap | It/Node Time

*    0     0               0      73.7537240   73.75372  0.00%     -    0s

Explored 1 nodes (579 simplex iterations) in 0.23 seconds (0.15 work units)
Thread count was 32 (of 128 available processors)

Solution count 1: 73.7537 

Optimal solution found (tolerance 1.00e-04)
Best objective 7.375372399754e+01, best bound 7.375372399754e+01, gap 0.0000%
